\ LP format - for model browsing. Use MPS format to capture full model detail.
Minimize
  - 7438.022028859663 Y0_0_1_1_0 - 7438.022028859663 Y0_0_1_1_1
   - 7438.022028859663 Y0_0_1_1_2 - 7438.022028859663 Y0_0_1_1_3
   - 3403.98244286825 Y0_0_1_2_0 - 3403.98244286825 Y0_0_1_2_1
   - 3403.98244286825 Y0_0_1_2_2 - 3403.98244286825 Y0_0_1_2_3
   - 4400.539446452241 Y0_0_1_3_0 - 4400.539446452241 Y0_0_1_3_1
   - 4400.539446452241 Y0_0_1_3_2 - 4400.539446452241 Y0_0_1_3_3
   - 5743.142058308395 Y0_0_2_1_0 - 5743.142058308395 Y0_0_2_1_1
   - 5743.142058308395 Y0_0_2_1_2 - 5743.142058308395 Y0_0_2_1_3
   - 3908.483488979055 Y0_0_2_2_0 - 3908.483488979055 Y0_0_2_2_1
   - 3908.483488979055 Y0_0_2_2_2 - 3908.483488979055 Y0_0_2_2_3
   - 13596.20233637649 Y0_0_2_3_0 - 13596.20233637649 Y0_0_2_3_1
   - 13596.20233637649 Y0_0_2_3_2 - 13596.20233637649 Y0_0_2_3_3
   - 4494.981625590797 Y0_1_1_2_0 - 4494.981625590797 Y0_1_1_2_1
   - 4494.981625590797 Y0_1_1_2_2 - 4494.981625590797 Y0_1_1_2_3
   - 5792.028890167415 Y0_1_1_3_0 - 5792.028890167415 Y0_1_1_3_1
   - 5792.028890167415 Y0_1_1_3_2 - 5792.028890167415 Y0_1_1_3_3
   - 5141.510460625508 Y0_1_2_2_0 - 5141.510460625508 Y0_1_2_2_1
   - 5141.510460625508 Y0_1_2_2_2 - 5141.510460625508 Y0_1_2_2_3
   - 17720.58968113461 Y0_1_2_3_0 - 17720.58968113461 Y0_1_2_3_1
   - 17720.58968113461 Y0_1_2_3_2 - 17720.58968113461 Y0_1_2_3_3
   - 886.3568433795747 Y0_2_1_3_0 - 886.3568433795747 Y0_2_1_3_1
   - 886.3568433795747 Y0_2_1_3_2 - 886.3568433795747 Y0_2_1_3_3
   - 3017.876506989953 Y0_2_2_3_0 - 3017.876506989953 Y0_2_2_3_1
   - 3017.876506989953 Y0_2_2_3_2 - 3017.876506989953 Y0_2_2_3_3
   - 1555.339655073719 Y1_0_2_1_0 - 1555.339655073719 Y1_0_2_1_1
   - 1555.339655073719 Y1_0_2_1_2 - 1555.339655073719 Y1_0_2_1_3
   - 1026.847479793327 Y1_0_2_2_0 - 1026.847479793327 Y1_0_2_2_1
   - 1026.847479793327 Y1_0_2_2_2 - 1026.847479793327 Y1_0_2_2_3
   - 3629.117119911125 Y1_0_2_3_0 - 3629.117119911125 Y1_0_2_3_1
   - 3629.117119911125 Y1_0_2_3_2 - 3629.117119911125 Y1_0_2_3_3
   - 4390.752441882692 Y1_1_2_2_0 - 4390.752441882692 Y1_1_2_2_1
   - 4390.752441882692 Y1_1_2_2_2 - 4390.752441882692 Y1_1_2_2_3
   - 15159.68295263737 Y1_1_2_3_0 - 15159.68295263737 Y1_1_2_3_1
   - 15159.68295263737 Y1_1_2_3_2 - 15159.68295263737 Y1_1_2_3_3
   - 7442.5681494462 Y1_2_2_3_0 - 7442.5681494462 Y1_2_2_3_1
   - 7442.5681494462 Y1_2_2_3_2 - 7442.5681494462 Y1_2_2_3_3
Subject To
 R0: X0_0_0 + X0_0_1 + X0_0_2 + X0_0_3 = 1
 R1: X0_1_0 + X0_1_1 + X0_1_2 + X0_1_3 = 1
 R2: X0_2_0 + X0_2_1 + X0_2_2 + X0_2_3 = 1
 R3: X0_3_0 + X0_3_1 + X0_3_2 + X0_3_3 = 1
 R4: X1_0_0 + X1_0_1 + X1_0_2 + X1_0_3 = 1
 R5: X1_1_0 + X1_1_1 + X1_1_2 + X1_1_3 = 1
 R6: X1_2_0 + X1_2_1 + X1_2_2 + X1_2_3 = 1
 R7: X1_3_0 + X1_3_1 + X1_3_2 + X1_3_3 = 1
 R8: X2_0_0 + X2_0_1 + X2_0_2 + X2_0_3 = 1
 R9: X2_1_0 + X2_1_1 + X2_1_2 + X2_1_3 = 1
 R10: X2_2_0 + X2_2_1 + X2_2_2 + X2_2_3 = 1
 R11: X2_3_0 + X2_3_1 + X2_3_2 + X2_3_3 = 1
 R12: X0_0_0 + X0_1_0 + X0_2_0 + X0_3_0 = 1
 R13: X1_0_0 + X1_1_0 + X1_2_0 + X1_3_0 = 1
 R14: X2_0_0 + X2_1_0 + X2_2_0 + X2_3_0 = 1
 R15: X0_0_1 + X0_1_1 + X0_2_1 + X0_3_1 = 1
 R16: X1_0_1 + X1_1_1 + X1_2_1 + X1_3_1 = 1
 R17: X2_0_1 + X2_1_1 + X2_2_1 + X2_3_1 = 1
 R18: X0_0_2 + X0_1_2 + X0_2_2 + X0_3_2 = 1
 R19: X1_0_2 + X1_1_2 + X1_2_2 + X1_3_2 = 1
 R20: X2_0_2 + X2_1_2 + X2_2_2 + X2_3_2 = 1
 R21: X0_0_3 + X0_1_3 + X0_2_3 + X0_3_3 = 1
 R22: X1_0_3 + X1_1_3 + X1_2_3 + X1_3_3 = 1
 R23: X2_0_3 + X2_1_3 + X2_2_3 + X2_3_3 = 1
 R24: - X0_0_0 + Y0_0_1_1_0 <= 0
 R25: - X0_0_0 + Y0_0_1_1_0 <= 0
 R26: - 2 X0_0_0 + Y0_0_1_1_0 >= -1
 R27: - X0_0_0 + Y0_0_1_2_0 <= 0
 R28: - X0_1_0 + Y0_0_1_2_0 <= 0
 R29: - X0_0_0 - X0_1_0 + Y0_0_1_2_0 >= -1
 R30: - X0_0_0 + Y0_0_1_3_0 <= 0
 R31: - X0_2_0 + Y0_0_1_3_0 <= 0
 R32: - X0_0_0 - X0_2_0 + Y0_0_1_3_0 >= -1
 R33: - X0_0_0 + Y0_0_2_1_0 <= 0
 R34: - X0_3_0 + Y0_0_2_1_0 <= 0
 R35: - X0_0_0 - X0_3_0 + Y0_0_2_1_0 >= -1
 R36: - X0_0_0 + Y0_0_2_2_0 <= 0
 R37: - X1_0_0 + Y0_0_2_2_0 <= 0
 R38: - X0_0_0 - X1_0_0 + Y0_0_2_2_0 >= -1
 R39: - X0_0_0 + Y0_0_2_3_0 <= 0
 R40: - X1_1_0 + Y0_0_2_3_0 <= 0
 R41: - X0_0_0 - X1_1_0 + Y0_0_2_3_0 >= -1
 R42: - X0_1_0 + Y0_1_1_2_0 <= 0
 R43: - X0_0_0 + Y0_1_1_2_0 <= 0
 R44: - X0_0_0 - X0_1_0 + Y0_1_1_2_0 >= -1
 R45: - X0_1_0 + Y0_1_1_3_0 <= 0
 R46: - X0_1_0 + Y0_1_1_3_0 <= 0
 R47: - 2 X0_1_0 + Y0_1_1_3_0 >= -1
 R48: - X0_1_0 + Y0_1_2_2_0 <= 0
 R49: - X0_2_0 + Y0_1_2_2_0 <= 0
 R50: - X0_1_0 - X0_2_0 + Y0_1_2_2_0 >= -1
 R51: - X0_1_0 + Y0_1_2_3_0 <= 0
 R52: - X0_3_0 + Y0_1_2_3_0 <= 0
 R53: - X0_1_0 - X0_3_0 + Y0_1_2_3_0 >= -1
 R54: - X0_2_0 + Y0_2_1_3_0 <= 0
 R55: - X0_0_0 + Y0_2_1_3_0 <= 0
 R56: - X0_0_0 - X0_2_0 + Y0_2_1_3_0 >= -1
 R57: - X0_2_0 + Y0_2_2_3_0 <= 0
 R58: - X0_1_0 + Y0_2_2_3_0 <= 0
 R59: - X0_1_0 - X0_2_0 + Y0_2_2_3_0 >= -1
 R60: - X0_3_0 + Y1_0_2_1_0 <= 0
 R61: - X0_0_0 + Y1_0_2_1_0 <= 0
 R62: - X0_0_0 - X0_3_0 + Y1_0_2_1_0 >= -1
 R63: - X0_3_0 + Y1_0_2_2_0 <= 0
 R64: - X0_1_0 + Y1_0_2_2_0 <= 0
 R65: - X0_1_0 - X0_3_0 + Y1_0_2_2_0 >= -1
 R66: - X0_3_0 + Y1_0_2_3_0 <= 0
 R67: - X0_2_0 + Y1_0_2_3_0 <= 0
 R68: - X0_2_0 - X0_3_0 + Y1_0_2_3_0 >= -1
 R69: - X1_0_0 + Y1_1_2_2_0 <= 0
 R70: - X0_0_0 + Y1_1_2_2_0 <= 0
 R71: - X0_0_0 - X1_0_0 + Y1_1_2_2_0 >= -1
 R72: - X1_0_0 + Y1_1_2_3_0 <= 0
 R73: - X0_1_0 + Y1_1_2_3_0 <= 0
 R74: - X0_1_0 - X1_0_0 + Y1_1_2_3_0 >= -1
 R75: - X1_1_0 + Y1_2_2_3_0 <= 0
 R76: - X0_0_0 + Y1_2_2_3_0 <= 0
 R77: - X0_0_0 - X1_1_0 + Y1_2_2_3_0 >= -1
 R78: - X0_0_1 + Y0_0_1_1_1 <= 0
 R79: - X0_0_1 + Y0_0_1_1_1 <= 0
 R80: - 2 X0_0_1 + Y0_0_1_1_1 >= -1
 R81: - X0_0_1 + Y0_0_1_2_1 <= 0
 R82: - X0_1_1 + Y0_0_1_2_1 <= 0
 R83: - X0_0_1 - X0_1_1 + Y0_0_1_2_1 >= -1
 R84: - X0_0_1 + Y0_0_1_3_1 <= 0
 R85: - X0_2_1 + Y0_0_1_3_1 <= 0
 R86: - X0_0_1 - X0_2_1 + Y0_0_1_3_1 >= -1
 R87: - X0_0_1 + Y0_0_2_1_1 <= 0
 R88: - X0_3_1 + Y0_0_2_1_1 <= 0
 R89: - X0_0_1 - X0_3_1 + Y0_0_2_1_1 >= -1
 R90: - X0_0_1 + Y0_0_2_2_1 <= 0
 R91: - X1_0_1 + Y0_0_2_2_1 <= 0
 R92: - X0_0_1 - X1_0_1 + Y0_0_2_2_1 >= -1
 R93: - X0_0_1 + Y0_0_2_3_1 <= 0
 R94: - X1_1_1 + Y0_0_2_3_1 <= 0
 R95: - X0_0_1 - X1_1_1 + Y0_0_2_3_1 >= -1
 R96: - X0_1_1 + Y0_1_1_2_1 <= 0
 R97: - X0_0_1 + Y0_1_1_2_1 <= 0
 R98: - X0_0_1 - X0_1_1 + Y0_1_1_2_1 >= -1
 R99: - X0_1_1 + Y0_1_1_3_1 <= 0
 R100: - X0_1_1 + Y0_1_1_3_1 <= 0
 R101: - 2 X0_1_1 + Y0_1_1_3_1 >= -1
 R102: - X0_1_1 + Y0_1_2_2_1 <= 0
 R103: - X0_2_1 + Y0_1_2_2_1 <= 0
 R104: - X0_1_1 - X0_2_1 + Y0_1_2_2_1 >= -1
 R105: - X0_1_1 + Y0_1_2_3_1 <= 0
 R106: - X0_3_1 + Y0_1_2_3_1 <= 0
 R107: - X0_1_1 - X0_3_1 + Y0_1_2_3_1 >= -1
 R108: - X0_2_1 + Y0_2_1_3_1 <= 0
 R109: - X0_0_1 + Y0_2_1_3_1 <= 0
 R110: - X0_0_1 - X0_2_1 + Y0_2_1_3_1 >= -1
 R111: - X0_2_1 + Y0_2_2_3_1 <= 0
 R112: - X0_1_1 + Y0_2_2_3_1 <= 0
 R113: - X0_1_1 - X0_2_1 + Y0_2_2_3_1 >= -1
 R114: - X0_3_1 + Y1_0_2_1_1 <= 0
 R115: - X0_0_1 + Y1_0_2_1_1 <= 0
 R116: - X0_0_1 - X0_3_1 + Y1_0_2_1_1 >= -1
 R117: - X0_3_1 + Y1_0_2_2_1 <= 0
 R118: - X0_1_1 + Y1_0_2_2_1 <= 0
 R119: - X0_1_1 - X0_3_1 + Y1_0_2_2_1 >= -1
 R120: - X0_3_1 + Y1_0_2_3_1 <= 0
 R121: - X0_2_1 + Y1_0_2_3_1 <= 0
 R122: - X0_2_1 - X0_3_1 + Y1_0_2_3_1 >= -1
 R123: - X1_0_1 + Y1_1_2_2_1 <= 0
 R124: - X0_0_1 + Y1_1_2_2_1 <= 0
 R125: - X0_0_1 - X1_0_1 + Y1_1_2_2_1 >= -1
 R126: - X1_0_1 + Y1_1_2_3_1 <= 0
 R127: - X0_1_1 + Y1_1_2_3_1 <= 0
 R128: - X0_1_1 - X1_0_1 + Y1_1_2_3_1 >= -1
 R129: - X1_1_1 + Y1_2_2_3_1 <= 0
 R130: - X0_0_1 + Y1_2_2_3_1 <= 0
 R131: - X0_0_1 - X1_1_1 + Y1_2_2_3_1 >= -1
 R132: - X0_0_2 + Y0_0_1_1_2 <= 0
 R133: - X0_0_2 + Y0_0_1_1_2 <= 0
 R134: - 2 X0_0_2 + Y0_0_1_1_2 >= -1
 R135: - X0_0_2 + Y0_0_1_2_2 <= 0
 R136: - X0_1_2 + Y0_0_1_2_2 <= 0
 R137: - X0_0_2 - X0_1_2 + Y0_0_1_2_2 >= -1
 R138: - X0_0_2 + Y0_0_1_3_2 <= 0
 R139: - X0_2_2 + Y0_0_1_3_2 <= 0
 R140: - X0_0_2 - X0_2_2 + Y0_0_1_3_2 >= -1
 R141: - X0_0_2 + Y0_0_2_1_2 <= 0
 R142: - X0_3_2 + Y0_0_2_1_2 <= 0
 R143: - X0_0_2 - X0_3_2 + Y0_0_2_1_2 >= -1
 R144: - X0_0_2 + Y0_0_2_2_2 <= 0
 R145: - X1_0_2 + Y0_0_2_2_2 <= 0
 R146: - X0_0_2 - X1_0_2 + Y0_0_2_2_2 >= -1
 R147: - X0_0_2 + Y0_0_2_3_2 <= 0
 R148: - X1_1_2 + Y0_0_2_3_2 <= 0
 R149: - X0_0_2 - X1_1_2 + Y0_0_2_3_2 >= -1
 R150: - X0_1_2 + Y0_1_1_2_2 <= 0
 R151: - X0_0_2 + Y0_1_1_2_2 <= 0
 R152: - X0_0_2 - X0_1_2 + Y0_1_1_2_2 >= -1
 R153: - X0_1_2 + Y0_1_1_3_2 <= 0
 R154: - X0_1_2 + Y0_1_1_3_2 <= 0
 R155: - 2 X0_1_2 + Y0_1_1_3_2 >= -1
 R156: - X0_1_2 + Y0_1_2_2_2 <= 0
 R157: - X0_2_2 + Y0_1_2_2_2 <= 0
 R158: - X0_1_2 - X0_2_2 + Y0_1_2_2_2 >= -1
 R159: - X0_1_2 + Y0_1_2_3_2 <= 0
 R160: - X0_3_2 + Y0_1_2_3_2 <= 0
 R161: - X0_1_2 - X0_3_2 + Y0_1_2_3_2 >= -1
 R162: - X0_2_2 + Y0_2_1_3_2 <= 0
 R163: - X0_0_2 + Y0_2_1_3_2 <= 0
 R164: - X0_0_2 - X0_2_2 + Y0_2_1_3_2 >= -1
 R165: - X0_2_2 + Y0_2_2_3_2 <= 0
 R166: - X0_1_2 + Y0_2_2_3_2 <= 0
 R167: - X0_1_2 - X0_2_2 + Y0_2_2_3_2 >= -1
 R168: - X0_3_2 + Y1_0_2_1_2 <= 0
 R169: - X0_0_2 + Y1_0_2_1_2 <= 0
 R170: - X0_0_2 - X0_3_2 + Y1_0_2_1_2 >= -1
 R171: - X0_3_2 + Y1_0_2_2_2 <= 0
 R172: - X0_1_2 + Y1_0_2_2_2 <= 0
 R173: - X0_1_2 - X0_3_2 + Y1_0_2_2_2 >= -1
 R174: - X0_3_2 + Y1_0_2_3_2 <= 0
 R175: - X0_2_2 + Y1_0_2_3_2 <= 0
 R176: - X0_2_2 - X0_3_2 + Y1_0_2_3_2 >= -1
 R177: - X1_0_2 + Y1_1_2_2_2 <= 0
 R178: - X0_0_2 + Y1_1_2_2_2 <= 0
 R179: - X0_0_2 - X1_0_2 + Y1_1_2_2_2 >= -1
 R180: - X1_0_2 + Y1_1_2_3_2 <= 0
 R181: - X0_1_2 + Y1_1_2_3_2 <= 0
 R182: - X0_1_2 - X1_0_2 + Y1_1_2_3_2 >= -1
 R183: - X1_1_2 + Y1_2_2_3_2 <= 0
 R184: - X0_0_2 + Y1_2_2_3_2 <= 0
 R185: - X0_0_2 - X1_1_2 + Y1_2_2_3_2 >= -1
 R186: - X0_0_3 + Y0_0_1_1_3 <= 0
 R187: - X0_0_3 + Y0_0_1_1_3 <= 0
 R188: - 2 X0_0_3 + Y0_0_1_1_3 >= -1
 R189: - X0_0_3 + Y0_0_1_2_3 <= 0
 R190: - X0_1_3 + Y0_0_1_2_3 <= 0
 R191: - X0_0_3 - X0_1_3 + Y0_0_1_2_3 >= -1
 R192: - X0_0_3 + Y0_0_1_3_3 <= 0
 R193: - X0_2_3 + Y0_0_1_3_3 <= 0
 R194: - X0_0_3 - X0_2_3 + Y0_0_1_3_3 >= -1
 R195: - X0_0_3 + Y0_0_2_1_3 <= 0
 R196: - X0_3_3 + Y0_0_2_1_3 <= 0
 R197: - X0_0_3 - X0_3_3 + Y0_0_2_1_3 >= -1
 R198: - X0_0_3 + Y0_0_2_2_3 <= 0
 R199: - X1_0_3 + Y0_0_2_2_3 <= 0
 R200: - X0_0_3 - X1_0_3 + Y0_0_2_2_3 >= -1
 R201: - X0_0_3 + Y0_0_2_3_3 <= 0
 R202: - X1_1_3 + Y0_0_2_3_3 <= 0
 R203: - X0_0_3 - X1_1_3 + Y0_0_2_3_3 >= -1
 R204: - X0_1_3 + Y0_1_1_2_3 <= 0
 R205: - X0_0_3 + Y0_1_1_2_3 <= 0
 R206: - X0_0_3 - X0_1_3 + Y0_1_1_2_3 >= -1
 R207: - X0_1_3 + Y0_1_1_3_3 <= 0
 R208: - X0_1_3 + Y0_1_1_3_3 <= 0
 R209: - 2 X0_1_3 + Y0_1_1_3_3 >= -1
 R210: - X0_1_3 + Y0_1_2_2_3 <= 0
 R211: - X0_2_3 + Y0_1_2_2_3 <= 0
 R212: - X0_1_3 - X0_2_3 + Y0_1_2_2_3 >= -1
 R213: - X0_1_3 + Y0_1_2_3_3 <= 0
 R214: - X0_3_3 + Y0_1_2_3_3 <= 0
 R215: - X0_1_3 - X0_3_3 + Y0_1_2_3_3 >= -1
 R216: - X0_2_3 + Y0_2_1_3_3 <= 0
 R217: - X0_0_3 + Y0_2_1_3_3 <= 0
 R218: - X0_0_3 - X0_2_3 + Y0_2_1_3_3 >= -1
 R219: - X0_2_3 + Y0_2_2_3_3 <= 0
 R220: - X0_1_3 + Y0_2_2_3_3 <= 0
 R221: - X0_1_3 - X0_2_3 + Y0_2_2_3_3 >= -1
 R222: - X0_3_3 + Y1_0_2_1_3 <= 0
 R223: - X0_0_3 + Y1_0_2_1_3 <= 0
 R224: - X0_0_3 - X0_3_3 + Y1_0_2_1_3 >= -1
 R225: - X0_3_3 + Y1_0_2_2_3 <= 0
 R226: - X0_1_3 + Y1_0_2_2_3 <= 0
 R227: - X0_1_3 - X0_3_3 + Y1_0_2_2_3 >= -1
 R228: - X0_3_3 + Y1_0_2_3_3 <= 0
 R229: - X0_2_3 + Y1_0_2_3_3 <= 0
 R230: - X0_2_3 - X0_3_3 + Y1_0_2_3_3 >= -1
 R231: - X1_0_3 + Y1_1_2_2_3 <= 0
 R232: - X0_0_3 + Y1_1_2_2_3 <= 0
 R233: - X0_0_3 - X1_0_3 + Y1_1_2_2_3 >= -1
 R234: - X1_0_3 + Y1_1_2_3_3 <= 0
 R235: - X0_1_3 + Y1_1_2_3_3 <= 0
 R236: - X0_1_3 - X1_0_3 + Y1_1_2_3_3 >= -1
 R237: - X1_1_3 + Y1_2_2_3_3 <= 0
 R238: - X0_0_3 + Y1_2_2_3_3 <= 0
 R239: - X0_0_3 - X1_1_3 + Y1_2_2_3_3 >= -1
Bounds
Binaries
 X0_0_0 X0_0_1 X0_0_2 X0_0_3 X0_1_0 X0_1_1 X0_1_2 X0_1_3 X0_2_0 X0_2_1
 X0_2_2 X0_2_3 X0_3_0 X0_3_1 X0_3_2 X0_3_3 X1_0_0 X1_0_1 X1_0_2 X1_0_3
 X1_1_0 X1_1_1 X1_1_2 X1_1_3 X1_2_0 X1_2_1 X1_2_2 X1_2_3 X1_3_0 X1_3_1
 X1_3_2 X1_3_3 X2_0_0 X2_0_1 X2_0_2 X2_0_3 X2_1_0 X2_1_1 X2_1_2 X2_1_3
 X2_2_0 X2_2_1 X2_2_2 X2_2_3 X2_3_0 X2_3_1 X2_3_2 X2_3_3 Y0_0_1_1_0
 Y0_0_1_1_1 Y0_0_1_1_2 Y0_0_1_1_3 Y0_0_1_2_0 Y0_0_1_2_1 Y0_0_1_2_2
 Y0_0_1_2_3 Y0_0_1_3_0 Y0_0_1_3_1 Y0_0_1_3_2 Y0_0_1_3_3 Y0_0_2_1_0
 Y0_0_2_1_1 Y0_0_2_1_2 Y0_0_2_1_3 Y0_0_2_2_0 Y0_0_2_2_1 Y0_0_2_2_2
 Y0_0_2_2_3 Y0_0_2_3_0 Y0_0_2_3_1 Y0_0_2_3_2 Y0_0_2_3_3 Y0_1_1_2_0
 Y0_1_1_2_1 Y0_1_1_2_2 Y0_1_1_2_3 Y0_1_1_3_0 Y0_1_1_3_1 Y0_1_1_3_2
 Y0_1_1_3_3 Y0_1_2_2_0 Y0_1_2_2_1 Y0_1_2_2_2 Y0_1_2_2_3 Y0_1_2_3_0
 Y0_1_2_3_1 Y0_1_2_3_2 Y0_1_2_3_3 Y0_2_1_3_0 Y0_2_1_3_1 Y0_2_1_3_2
 Y0_2_1_3_3 Y0_2_2_3_0 Y0_2_2_3_1 Y0_2_2_3_2 Y0_2_2_3_3 Y1_0_2_1_0
 Y1_0_2_1_1 Y1_0_2_1_2 Y1_0_2_1_3 Y1_0_2_2_0 Y1_0_2_2_1 Y1_0_2_2_2
 Y1_0_2_2_3 Y1_0_2_3_0 Y1_0_2_3_1 Y1_0_2_3_2 Y1_0_2_3_3 Y1_1_2_2_0
 Y1_1_2_2_1 Y1_1_2_2_2 Y1_1_2_2_3 Y1_1_2_3_0 Y1_1_2_3_1 Y1_1_2_3_2
 Y1_1_2_3_3 Y1_2_2_3_0 Y1_2_2_3_1 Y1_2_2_3_2 Y1_2_2_3_3
End
